NAME: random-76-28611
TYPE: TSP
COMMENT: size=76 seed=28611
DIMENSION: 154
EDGE_WEIGHT_TYPE: EUC_2D
NODE_COORD_SECTION
+0 77 478
-0 77 478
+1 9 384
-1 169 424
+2 508 125
-2 956 748
+3 834 779
-3 794 48
+4 103 79
-4 297 868
+5 365 356
-5 602 787
+6 937 538
-6 232 135
+7 982 218
-7 152 557
+8 509 511
-8 90 786
+9 469 312
-9 731 187
+10 841 775
-10 751 858
+11 255 82
-11 371 737
+12 640 685
-12 901 287
+13 694 129
-13 282 729
+14 171 502
-14 419 129
+15 841 128
-15 602 495
+16 895 132
-16 689 323
+17 256 893
-17 803 861
+18 216 128
-18 583 18
+19 959 992
-19 486 467
+20 717 292
-20 228 152
+21 760 28
-21 747 6
+22 596 44
-22 731 845
+23 381 707
-23 408 838
+24 346 735
-24 483 36
+25 427 678
-25 782 914
+26 201 53
-26 968 152
+27 357 830
-27 648 518
+28 246 777
-28 566 201
+29 325 500
-29 592 775
+30 719 495
-30 939 997
+31 449 172
-31 445 822
+32 441 787
-32 643 583
+33 355 601
-33 51 460
+34 839 45
-34 28 287
+35 189 996
-35 501 841
+36 325 25
-36 161 55
+37 874 194
-37 320 319
+38 610 304
-38 696 665
+39 204 809
-39 60 514
+40 276 909
-40 457 165
+41 701 775
-41 726 923
+42 750 141
-42 895 401
+43 654 838
-43 333 46
+44 770 494
-44 971 795
+45 235 407
-45 24 897
+46 249 9
-46 435 500
+47 721 10
-47 483 123
+48 566 88
-48 500 699
+49 969 80
-49 726 907
+50 420 15
-50 577 974
+51 127 746
-51 229 617
+52 286 852
-52 383 104
+53 992 244
-53 592 596
+54 565 889
-54 984 613
+55 235 408
-55 313 481
+56 720 346
-56 20 683
+57 993 336
-57 661 952
+58 820 870
-58 357 97
+59 275 798
-59 572 431
+60 140 745
-60 133 53
+61 184 725
-61 541 70
+62 553 43
-62 685 643
+63 166 744
-63 4 442
+64 711 904
-64 257 844
+65 555 155
-65 364 294
+66 493 489
-66 648 337
+67 914 767
-67 113 605
+68 562 222
-68 63 245
+69 706 875
-69 408 66
+70 133 751
-70 758 210
+71 590 700
-71 140 738
+72 793 269
-72 799 555
+73 428 134
-73 216 48
+74 84 869
-74 644 403
+75 143 190
-75 645 45
+76 142 879
-76 452 495
PRECEDENCE_SECTION
+0 -0
+1 -1
+2 -2
+3 -3
+4 -4
+5 -5
+6 -6
+7 -7
+8 -8
+9 -9
+10 -10
+11 -11
+12 -12
+13 -13
+14 -14
+15 -15
+16 -16
+17 -17
+18 -18
+19 -19
+20 -20
+21 -21
+22 -22
+23 -23
+24 -24
+25 -25
+26 -26
+27 -27
+28 -28
+29 -29
+30 -30
+31 -31
+32 -32
+33 -33
+34 -34
+35 -35
+36 -36
+37 -37
+38 -38
+39 -39
+40 -40
+41 -41
+42 -42
+43 -43
+44 -44
+45 -45
+46 -46
+47 -47
+48 -48
+49 -49
+50 -50
+51 -51
+52 -52
+53 -53
+54 -54
+55 -55
+56 -56
+57 -57
+58 -58
+59 -59
+60 -60
+61 -61
+62 -62
+63 -63
+64 -64
+65 -65
+66 -66
+67 -67
+68 -68
+69 -69
+70 -70
+71 -71
+72 -72
+73 -73
+74 -74
+75 -75
+76 -76
EOF
